c description: Perfect Matching Principle on 
c generator: CNFgen (0.9.0)
c copyright: (C) 2012-2020 Massimo Lauria <massimo.lauria@uniroma1.it>
c url: https://massimolauria.net/cnfgen
c
p cnf 40 123
0
1 0
2 0
-3 -4 0
-3 -5 0
-4 -5 0
3 4 5 0
0
6 0
-6 -7 0
-6 -8 0
-7 -8 0
6 7 8 0
0
-3 -9 0
-3 -10 0
-9 -10 0
3 9 10 0
11 0
0
-12 -13 0
-12 -14 0
-12 -15 0
-13 -14 0
-13 -15 0
-14 -15 0
12 13 14 15 0
-9 -16 0
-9 -17 0
-16 -17 0
9 16 17 0
-18 -19 0
18 19 0
-20 -21 0
20 21 0
-22 -23 0
22 23 0
-24 -25 0
24 25 0
-12 -26 0
12 26 0
-27 -28 0
-27 -29 0
-28 -29 0
27 28 29 0
30 0
-4 -13 0
-4 -22 0
-4 -31 0
-13 -22 0
-13 -31 0
-22 -31 0
4 13 22 31 0
-32 -33 0
32 33 0
34 0
-1 -14 0
1 14 0
-30 -35 0
30 35 0
-10 -20 0
10 20 0
-26 -27 0
26 27 0
-15 -18 0
-15 -23 0
-15 -24 0
-15 -36 0
-18 -23 0
-18 -24 0
-18 -36 0
-23 -24 0
-23 -36 0
-24 -36 0
15 18 23 24 36 0
-21 -28 0
-21 -32 0
-21 -35 0
-21 -37 0
-21 -38 0
-28 -32 0
-28 -35 0
-28 -37 0
-28 -38 0
-32 -35 0
-32 -37 0
-32 -38 0
-35 -37 0
-35 -38 0
-37 -38 0
21 28 32 35 37 38 0
31 0
-7 -16 0
-7 -25 0
-7 -39 0
-16 -25 0
-16 -39 0
-25 -39 0
7 16 25 39 0
-36 -39 0
36 39 0
-37 -40 0
37 40 0
-5 -33 0
-5 -38 0
-33 -38 0
5 33 38 0
40 0
0
34 0
8 0
-2 -11 0
-2 -17 0
-2 -19 0
-2 -29 0
-11 -17 0
-11 -19 0
-11 -29 0
-17 -19 0
-17 -29 0
-19 -29 0
2 11 17 19 29 0
0